c description: Random 3-CNF over 8 variables and 16 clauses
p cnf 8 16
1 2 -7 0
1 -6 -8 0
1 -6 8 0
-3 -4 -5 0
-1 -4 -8 0
-1 -7 8 0
1 5 8 0
4 -6 8 0
2 4 8 0
3 7 8 0
2 -4 5 0
-1 5 7 0
1 2 -3 0
-4 -5 7 0
-3 -7 -8 0
-2 4 6 0